60
125
87	2
86	5
85	2
84	2
83	4
82	5
81	4
80	5
79	1
78	3
77	5
76	5
75	2
74	1
73	5
72	4
71	4
69	7
68	1
67	2
66	4
65	4
64	4
63	5
62	4
61	3
60	2
59	8
58	3
57	3
56	1
55	3
54	4
52	5
51	3
50	2
49	3
48	4
47	4
46	2
45	2
44	7
43	4
41	4
40	3
39	2
38	4
37	4
36	4
35	1
34	4
33	1
32	2
31	2
30	1
29	4
28	5
27	2
26	2
25	2
